(declare-fun temp1162_1 () (_ BitVec 64))
(declare-fun var461925 () (_ BitVec 64))
(declare-fun temp1162_2 () (_ BitVec 64))
(declare-fun var724069 () (_ BitVec 64))
(declare-fun temp1162_3 () (_ BitVec 64))
(declare-fun temp1162_4 () (_ BitVec 64))
(declare-fun var69380 () (_ BitVec 64))
(declare-fun k!0 () Bool)
(declare-fun ARGNAME_rtol_NAMEEND () (_ BitVec 64))
(declare-fun temp1162_5 () (_ BitVec 64))
(declare-fun ARGNAME_atol_NAMEEND () (_ BitVec 64))
(declare-fun var69401 () (_ BitVec 64))
(declare-fun temp1162_6 () (_ BitVec 64))
(declare-fun temp1162_7 () (_ BitVec 64))
(declare-fun temp1162_8 () (_ BitVec 64))
(declare-fun ARGNAME_input_NAMEEND_DIMSIZE
             ()
             (Array (_ BitVec 64) (_ BitVec 64)))
(declare-fun temp1162_9 () (_ BitVec 64))
(declare-fun temp1162_10 () (_ BitVec 64))
(declare-fun temp1162_11 () (_ BitVec 64))
(declare-fun temp1162_12 () (_ BitVec 64))
(declare-fun temp1162_13 () (_ BitVec 64))
(declare-fun temp1162_14 () (_ BitVec 64))
(declare-fun temp1162_15 () (_ BitVec 64))
(declare-fun temp1162_16 () (_ BitVec 64))
(declare-fun temp1162_17 () (_ BitVec 64))
(declare-fun temp1162_18 () (_ BitVec 64))
(declare-fun temp1162_19 () (_ BitVec 64))
(declare-fun temp1162_20 () (_ BitVec 64))
(declare-fun temp1162_21 () (_ BitVec 64))
(declare-fun temp1162_22 () (_ BitVec 64))
(declare-fun temp1162_23 () (_ BitVec 64))
(declare-fun temp1162_24 () (_ BitVec 64))
(declare-fun temp1162_25 () (_ BitVec 64))
(declare-fun temp1162_26 () (_ BitVec 64))
(declare-fun ARGNAME_other_NAMEEND_DIMSIZE
             ()
             (Array (_ BitVec 64) (_ BitVec 64)))
(declare-fun temp1162_27 () (_ BitVec 64))
(declare-fun temp1162_28 () (_ BitVec 64))
(declare-fun temp1162_29 () (_ BitVec 64))
(declare-fun temp1162_30 () (_ BitVec 64))
(declare-fun temp1162_31 () (_ BitVec 64))
(declare-fun temp1162_32 () (_ BitVec 64))
(declare-fun temp1162_33 () (_ BitVec 64))
(declare-fun temp1162_34 () (_ BitVec 64))
(declare-fun temp1162_35 () (_ BitVec 64))
(declare-fun temp1162_36 () (_ BitVec 64))
(declare-fun temp1162_37 () (_ BitVec 64))
(declare-fun temp1162_38 () (_ BitVec 64))
(declare-fun temp1162_39 () (_ BitVec 64))
(declare-fun temp1162_40 () (_ BitVec 64))
(declare-fun temp1162_41 () (_ BitVec 64))
(declare-fun temp1162_42 () (_ BitVec 64))
(declare-fun temp1162_43 () (_ BitVec 64))
(declare-fun temp1162_44 () (_ BitVec 64))
(declare-fun temp1162_45 () (_ BitVec 64))
(declare-fun temp1162_46 () (_ BitVec 64))
(declare-fun temp1162_47 () (_ BitVec 64))
(declare-fun temp1162_48 () (_ BitVec 64))
(declare-fun temp1162_49 () (_ BitVec 64))
(declare-fun temp1162_50 () (_ BitVec 64))
(declare-fun temp1162_51 () (_ BitVec 64))
(declare-fun temp1162_52 () (_ BitVec 64))
(declare-fun temp1162_53 () (_ BitVec 64))
(declare-fun temp1162_54 () (_ BitVec 64))
(declare-fun temp1162_55 () (_ BitVec 64))
(declare-fun temp1162_56 () (_ BitVec 64))
(declare-fun temp1162_57 () (_ BitVec 64))
(declare-fun temp1162_58 () (_ BitVec 64))
(declare-fun temp1162_59 () (_ BitVec 64))
(declare-fun temp1162_60 () (_ BitVec 64))
(declare-fun temp1162_61 () (_ BitVec 64))
(declare-fun temp1162_62 () (_ BitVec 64))
(declare-fun temp1162_63 () (_ BitVec 64))
(declare-fun temp1162_64 () (_ BitVec 64))
(declare-fun temp1162_65 () (_ BitVec 64))
(declare-fun temp1162_66 () (_ BitVec 64))
(declare-fun temp1162_67 () (_ BitVec 64))
(declare-fun temp1162_68 () (_ BitVec 64))
(declare-fun temp1162_69 () (_ BitVec 64))
(declare-fun temp1162_70 () (_ BitVec 64))
(declare-fun temp1162_71 () (_ BitVec 64))
(declare-fun temp1162_72 () (_ BitVec 64))
(declare-fun temp1162_73 () (_ BitVec 64))
(declare-fun temp1162_74 () (_ BitVec 64))
(declare-fun temp1162_75 () (_ BitVec 64))
(declare-fun temp1162_76 () (_ BitVec 64))
(declare-fun temp1162_77 () (_ BitVec 64))
(declare-fun temp1162_78 () (_ BitVec 64))
(declare-fun ARGNAME_other_NAMEEND_DIM () (_ BitVec 64))
(declare-fun temp1162_79 () (_ BitVec 64))
(declare-fun ARGNAME_equal_nan_NAMEEND () (_ BitVec 64))
(declare-fun temp1162_80 () (_ BitVec 64))
(declare-fun var69543 () (_ BitVec 64))
(declare-fun temp1162_81 () (_ BitVec 64))
(declare-fun var69545 () (_ BitVec 64))
(declare-fun var69546 () (_ BitVec 64))
(declare-fun temp1162_82 () (_ BitVec 64))
(declare-fun temp1162_83 () (_ BitVec 64))
(declare-fun var987438 () (_ BitVec 64))
(declare-fun temp1162_84 () (_ BitVec 64))
(declare-fun var987439 () (_ BitVec 64))
(declare-fun var1311870 () (_ BitVec 64))
(declare-fun var1311871 () (_ BitVec 64))
(declare-fun temp1162_85 () (_ BitVec 64))
(declare-fun var2036122 () (_ BitVec 64))
(declare-fun temp1162_86 () (_ BitVec 64))
(declare-fun var2560410 () (_ BitVec 64))
(assert (= temp1162_1 #x0000000000080000))
(assert (= var461925 temp1162_1))
(assert (= temp1162_2 #x0000000000080000))
(assert (= var724069 temp1162_2))
(assert (= temp1162_3 #x0000000000000000))
(assert (= var69380
   (ite (bvslt ARGNAME_rtol_NAMEEND temp1162_3)
        #x0000000000000001
        #x0000000000000000)))
(assert (= temp1162_4 #x0000000000000000))
(assert (= var69380 temp1162_4))
(assert (= temp1162_5 #x0000000000000000))
(assert (= var69401
   (ite (bvslt ARGNAME_atol_NAMEEND temp1162_5)
        #x0000000000000001
        #x0000000000000000)))
(assert (= temp1162_6 #x0000000000000000))
(assert (= var69401 temp1162_6))
(assert (= temp1162_7 #x0000000000000000))
(assert (= temp1162_8 temp1162_7))
(assert (= temp1162_9 (select ARGNAME_input_NAMEEND_DIMSIZE temp1162_8)))
(assert (= temp1162_10 #x0000000000000001))
(assert (= temp1162_11 temp1162_10))
(assert (= temp1162_12 (select ARGNAME_input_NAMEEND_DIMSIZE temp1162_11)))
(assert (= temp1162_13 #x0000000000000002))
(assert (= temp1162_14 temp1162_13))
(assert (= temp1162_15 (select ARGNAME_input_NAMEEND_DIMSIZE temp1162_14)))
(assert (= temp1162_16 #x0000000000000003))
(assert (= temp1162_17 temp1162_16))
(assert (= temp1162_18 (select ARGNAME_input_NAMEEND_DIMSIZE temp1162_17)))
(assert (= temp1162_19 #x0000000000000004))
(assert (= temp1162_20 temp1162_19))
(assert (= temp1162_21 (select ARGNAME_input_NAMEEND_DIMSIZE temp1162_20)))
(assert (= temp1162_22 #x0000000000000005))
(assert (= temp1162_23 temp1162_22))
(assert (= temp1162_24 (select ARGNAME_input_NAMEEND_DIMSIZE temp1162_23)))
(assert (= temp1162_25 #x0000000000000000))
(assert (= temp1162_26 temp1162_25))
(assert (= temp1162_27 (select ARGNAME_other_NAMEEND_DIMSIZE temp1162_26)))
(assert (= temp1162_28 #x0000000000000001))
(assert (= temp1162_29 temp1162_28))
(assert (= temp1162_30 (select ARGNAME_other_NAMEEND_DIMSIZE temp1162_29)))
(assert (= temp1162_31 #x0000000000000002))
(assert (= temp1162_32 temp1162_31))
(assert (= temp1162_33 (select ARGNAME_other_NAMEEND_DIMSIZE temp1162_32)))
(assert (= temp1162_34 #x0000000000000003))
(assert (= temp1162_35 temp1162_34))
(assert (= temp1162_36 (select ARGNAME_other_NAMEEND_DIMSIZE temp1162_35)))
(assert (= temp1162_37 #x0000000000000004))
(assert (= temp1162_38 temp1162_37))
(assert (= temp1162_39 (select ARGNAME_other_NAMEEND_DIMSIZE temp1162_38)))
(assert (= temp1162_40 #x0000000000000005))
(assert (= temp1162_41 temp1162_40))
(assert (= temp1162_42 (select ARGNAME_other_NAMEEND_DIMSIZE temp1162_41)))
(assert (= temp1162_43 temp1162_11))
(assert (= temp1162_44 (select ARGNAME_other_NAMEEND_DIMSIZE temp1162_43)))
(assert (= temp1162_45 temp1162_14))
(assert (= temp1162_46 (select ARGNAME_other_NAMEEND_DIMSIZE temp1162_45)))
(assert (= temp1162_47 temp1162_17))
(assert (= temp1162_48 (select ARGNAME_other_NAMEEND_DIMSIZE temp1162_47)))
(assert (= temp1162_49 temp1162_20))
(assert (= temp1162_50 (select ARGNAME_other_NAMEEND_DIMSIZE temp1162_49)))
(assert (= temp1162_51 temp1162_23))
(assert (= temp1162_52 (select ARGNAME_other_NAMEEND_DIMSIZE temp1162_51)))
(assert (= temp1162_53 temp1162_8))
(assert (= temp1162_54 (select ARGNAME_other_NAMEEND_DIMSIZE temp1162_53)))
(assert (= temp1162_55 temp1162_26))
(assert (= temp1162_56 (select ARGNAME_input_NAMEEND_DIMSIZE temp1162_55)))
(assert (= temp1162_57 temp1162_29))
(assert (= temp1162_58 (select ARGNAME_input_NAMEEND_DIMSIZE temp1162_57)))
(assert (= temp1162_59 temp1162_32))
(assert (= temp1162_60 (select ARGNAME_input_NAMEEND_DIMSIZE temp1162_59)))
(assert (= temp1162_61 temp1162_35))
(assert (= temp1162_62 (select ARGNAME_input_NAMEEND_DIMSIZE temp1162_61)))
(assert (= temp1162_63 temp1162_38))
(assert (= temp1162_64 (select ARGNAME_input_NAMEEND_DIMSIZE temp1162_63)))
(assert (= temp1162_65 temp1162_41))
(assert (= temp1162_66 (select ARGNAME_input_NAMEEND_DIMSIZE temp1162_65)))
(assert (= temp1162_67 temp1162_43))
(assert (= temp1162_68 (select ARGNAME_input_NAMEEND_DIMSIZE temp1162_67)))
(assert (= temp1162_69 temp1162_45))
(assert (= temp1162_70 (select ARGNAME_input_NAMEEND_DIMSIZE temp1162_69)))
(assert (= temp1162_71 temp1162_47))
(assert (= temp1162_72 (select ARGNAME_input_NAMEEND_DIMSIZE temp1162_71)))
(assert (= temp1162_73 temp1162_49))
(assert (= temp1162_74 (select ARGNAME_input_NAMEEND_DIMSIZE temp1162_73)))
(assert (= temp1162_75 temp1162_51))
(assert (= temp1162_76 (select ARGNAME_input_NAMEEND_DIMSIZE temp1162_75)))
(assert (= temp1162_77 temp1162_53))
(assert (= temp1162_78 (select ARGNAME_input_NAMEEND_DIMSIZE temp1162_77)))
(assert (= (and true
        (= temp1162_44 temp1162_12)
        (= temp1162_46 temp1162_15)
        (= temp1162_48 temp1162_18)
        (= temp1162_50 temp1162_21)
        (= temp1162_52 temp1162_24)
        (= temp1162_54 temp1162_9)
        (= temp1162_56 temp1162_27)
        (= temp1162_58 temp1162_30)
        (= temp1162_60 temp1162_33)
        (= temp1162_62 temp1162_36)
        (= temp1162_64 temp1162_39)
        (= temp1162_66 temp1162_42)
        (= temp1162_68 temp1162_44)
        (= temp1162_70 temp1162_46)
        (= temp1162_72 temp1162_48)
        (= temp1162_74 temp1162_50)
        (= temp1162_76 temp1162_52)
        (= temp1162_78 temp1162_54))
   true))
(assert (= ARGNAME_other_NAMEEND_DIM ARGNAME_other_NAMEEND_DIM))
(assert (= temp1162_79 #x0000000000000000))
(assert (= ARGNAME_equal_nan_NAMEEND temp1162_79))
(assert (= temp1162_80 #x0000000000000000))
(assert (= var69543
   (ite (= ARGNAME_rtol_NAMEEND temp1162_80)
        #x0000000000000001
        #x0000000000000000)))
(assert (= temp1162_81 #x0000000000000000))
(assert (= var69545
   (ite (= ARGNAME_atol_NAMEEND temp1162_81)
        #x0000000000000001
        #x0000000000000000)))
(assert (= var69546 (bvand var69543 var69545)))
(assert (= temp1162_82 #x0000000000000000))
(assert (= var69546 temp1162_82))
(assert (= temp1162_83 #x0000000000000000))
(assert (= var987438 temp1162_83))
(assert (= temp1162_84 #x0000000000000000))
(assert (= var987439 temp1162_84))
(assert (= var1311870 var987438))
(assert (= var1311871 var987439))
(assert (= temp1162_85 #x0000000000000001))
(assert (= var2036122 temp1162_85))
(assert (= temp1162_86 #x0000000000000001))
(assert (= var2560410 temp1162_86))
(model-add temp1162_1 () (_ BitVec 64) #x0000000000080000)
(model-add var461925 () (_ BitVec 64) #x0000000000080000)
(model-add temp1162_2 () (_ BitVec 64) #x0000000000080000)
(model-add var724069 () (_ BitVec 64) #x0000000000080000)
(model-add temp1162_3 () (_ BitVec 64) #x0000000000000000)
(model-add temp1162_4 () (_ BitVec 64) #x0000000000000000)
(model-add var69380 () (_ BitVec 64) #x0000000000000000)
(model-del k!0)
(model-add ARGNAME_rtol_NAMEEND
           ()
           (_ BitVec 64)
           (ite (or k!0 (= #x0000000000000000 #x8000000000000000))
                #x0000000000000000
                (bvsub #x0000000000000000 #x0000000000000001)))






